
 102   30
  10   10   10   10   10   10   10   10   10   10   10   10   10   10   10   10   10   10   10   10   10   10   10   10   10   10   10   10   10   10

   0   0   0   0   0   0   0   0   0   0   0   0   0   0   0   0   0   0   0   0   0   0   0   0   0   0   0   0   0   0   0  30 2 3 4 5 6 7 8 9 10 12 13 14 16 17 18 19 20 21 23 24 25 27 28 31 32 33 35 36 37 40 
   2   0   1   0   0   0   0   0   0   1   0   0   0   1   0   2   0   0   0   0   1   0   3   0   0   0   0   0   0   0   0  14 101 69 63 59 53 45 42 41 39 38 30 26 15 11 
   6   0   4   0   1   0   0   0   0   0   0   0   0   0   0   0   0   0   0   0   9   0   0   0   0   0   0   0   2   0   0  19 101 65 63 59 56 54 52 50 49 48 47 46 45 44 43 42 39 34 29 
  10   0   0   1   0   1   0   1   0   0   0   0   0   0   4   0   1   0   0   1   0   0   0   0   0   0   0   1   0   0   0  13 100 69 61 56 55 54 50 49 48 45 42 26 22 
   1   0   0  10   0   0   0   0   0   0   0   0   3   6   0   0   0   0   0   6   5   0   0   0   3   0   0   0   0   0   0  13 101 100 64 63 62 61 55 50 47 45 43 41 26 
   7   0   0   0   0   9   0   0   0   0   0   0   0   0   0   0   0   0   1   0   0   0   0   3   0   1   0   0   0   0   0  14 101 100 95 63 62 61 54 51 50 49 43 42 39 26 
   5   0   0   0   0   0   0   0   0   0   0   0   0   0   0   6   3   0   0   0   0   0   5   0   0   0   0   0   0   4   0  17 100 97 94 90 89 69 62 61 56 55 54 49 47 46 45 43 34 
   6   0   8   0   0   4   0   6   1   0   0   0   0   0   0   4   0   2   0   0   6   0   0   0   0   0   0   0   0   0   0  21 100 98 95 94 91 89 88 69 68 66 65 62 61 58 55 54 50 49 48 46 42 
   8   0   0   0   0   0   0   0   0   0   0   0   0   0   0   0   0   0   0   0   0   0   0   0   6   0   0   0   0   5   0  14 100 94 90 89 78 67 61 56 54 52 47 46 42 30 
   9   0   0   0   0   6   0   0   0   0   0   1   7   0   0   0   0   0   0   0   0   1   0   0   0   0   2  10   0   0   0  13 100 94 90 89 69 66 65 62 61 58 55 45 30 
   5   0   0   8   0   0   3   0   6   0   0   0   0   0   0   0   0   6   6   0   0   0   0   0   0   0   7   0   0   0   0  18 100 96 95 94 93 92 89 86 67 66 58 57 56 54 50 49 48 43 
   9   0   0   0   0   0   0   0   7   0   0   5  10   0   0   0   9   7   0   0   0   0   0   0   0   8   0   0   0   0   0  17 101 100 96 92 88 87 85 80 79 78 69 66 61 60 49 45 39 
   8   0   0   0   0   0   0   0   0   0   0   0   0   0   0   0   7   0   0   0   0   0   0   0   0   0   0   0   4   0   0  11 100 94 89 66 63 61 57 48 45 43 42 
   1   0   0   0   0   0   0   4   0   0   0   0   0   0   3   0   0   0   0   0   0   0   0   0   4   0   0   0   8   0   0  23 101 100 98 96 95 94 93 91 90 88 85 82 80 78 77 69 64 61 60 59 57 54 49 
   1   0   0   0   0   0   0   0   0   0   0   0   0   0   0   0   0   0   0   0   0   0   0   0   0   0   0   5   0   3   0  19 100 99 98 97 96 95 94 93 90 89 75 67 65 62 61 60 58 55 43 
   6   0   0   0   0   0   0   0   0   0   0   0   0   0   4   0   0   0   0   0   0   0   8   0   0   0   0   0   0   0   0  17 97 94 93 92 91 89 88 86 81 73 69 68 62 54 50 47 42 
   8   0   0   0   0   0   0   0   8   0   0   0   0   0   0   0   0   0   0   0   0   0   4   0   0   9  10   4   0   0   0  16 100 98 97 94 89 84 74 68 67 66 61 60 58 55 46 43 
   5   0   8   8   0   0   0   0   0   0   0   6   0   0   0   0   5   0   0   0   0   0   0   0   0   0   3   0   0   8   0  24 101 100 99 98 97 96 95 94 93 92 91 88 87 86 84 78 77 73 68 67 66 58 57 54 
   1   0   0   0   0   0   0   0   8   0   1   4   0   0   0   0   0   0   0   0   6   0   0   0   0   0   0   0   0   0   0  21 100 99 98 97 95 94 93 91 90 89 88 86 81 79 78 74 73 68 67 66 42 
   2   0   0   0   6   0   4   0   0   0   0   0   0   0   0   0   0   0   0   0   0   0   0   0   0   0   0   0   0   0   0  19 101 98 97 94 93 90 87 85 84 83 82 78 68 64 59 58 57 56 54 
   8   0   0   0   0   0   6   0   0   8   0   0   0   7   0   0   0   0   0   0   0   0   0   0  10   0   0   4   0   0   0  16 101 100 97 95 94 90 85 78 77 76 73 68 66 58 49 46 
   8   0   4   0   0   0   0   0  10   0   0   0   0   0   0   0   0   0   0   0   0   0   0   0   0   0   0   8   0   0   0  15 101 97 94 93 92 86 74 67 66 62 60 58 57 52 43 
  10   0   0   0   0   4   0   0   0   0   0   0   0   0   5   0   0   0   0   5   0   0   0   0   0   0   5   0   0   0   0  10 99 98 95 93 90 74 68 43 42 34 
   7   0   0   0   0   0   0   0   0   0   0   0   0   0   0   0   0   0   0   0   0   0   0   0   0   0   0   0   0   0   1  18 100 98 97 96 95 94 91 89 88 85 84 83 80 77 73 67 54 46 
   7   0   0   0   0   0   0   0   0   0   5   0   0   0   0  10   0   0   0   0   0   0   0   0   0   0   0   0   4   3   0  13 97 95 92 90 89 78 69 64 61 58 57 49 42 
   3   0   0   0   0   0   0   0   3   8   0   0   0   0   0   0   0   0   0  10   0   0   0   0   0   0   0   0   0   0   0  16 99 98 97 94 91 90 89 85 83 80 77 76 67 66 65 46 
   9   0   0   0   7   0   0   0   4   0   0   8   0   0   0   0   0   0   6   8   0   0   0   0   0   0   0   0   0   2   0  16 96 95 94 92 90 89 84 83 77 76 68 66 64 58 57 43 
   7   0   0   0   0   0   0   0   0   0   0   0   0   0   0   0   0   0   0   0   5   0   0   0   0   0   0   8   0   6   0  16 99 92 91 90 88 87 86 83 82 68 66 64 61 58 57 55 
   9   0   0   0   0   0   0   0   0   0   0   0   0   0   0   0   0   6   0   0   2   6   0   0   0   0   0   0   0   0   0  20 98 97 96 94 93 92 91 90 89 88 86 85 82 80 74 73 67 66 61 57 
  10   0   0   0   0   0   0   0   0   0   6   9   0   7   0   0   0   0   0   0   7   0   0   0   0   4   0   0   0   0   5  12 97 93 92 86 84 77 76 75 68 60 57 43 
   3   0   0   6   0   0   0   0   5   0   0   0   0   6   0   0   0   0   0   0   0   0   0   0   0   7   0   0   0   4   0  15 100 98 94 93 92 91 89 86 81 77 76 73 60 58 49 
   1   0   5   0   0   0   0   0   4   0   0   0   0   0   0   0   0   0   0   0   0   0   0   0   0   0   0   5   0   0   9  15 98 92 87 86 84 83 81 75 72 69 67 64 58 55 52 
   5   0   0   0   0   0   0   0   6   0   0   7   0   3   0   0   0   5   0   0   5   0   0   0   0   0   0   0   0   0   0  16 99 94 92 90 89 88 86 84 83 82 81 77 75 74 61 58 
   8   0   0   0   0   0   0   0   0   0   0   0   0   0   0   0   0  10   0   0   0   0   0   0   0   0   7   0   0   7   0  16 96 92 88 87 86 85 84 82 81 80 77 76 73 67 66 60 
   2   0   0   0   0   0   0   0   0   0   0   0   0   0   0   0   0   0   0   0   0   0   0   0   6   0   0   0   0   0   0  13 101 98 97 93 90 87 83 81 79 77 73 66 54 
   3   0   0   0   0   7   0   0   0   0   0   0   0   0   0   0   0   0   5   0   0   7   0   0   0   0   0   0   0   0   0  10 94 90 88 84 83 75 74 72 58 55 
   2   0   0   7   0   0   0   0   5   0   0   0   0   0   0   0   0   7   0   0   0   0   0   0   0   0   0   0   8  10   6   9 95 92 82 80 73 69 66 57 56 
   4   0   0   0   0   0   0   0   0   0   0   0   0   0   0   0   0   0   5   9   0   0   0   0   0   0   0   0  10   0   0  16 100 97 90 88 86 85 84 82 80 77 76 75 74 73 72 71 
   8   1   6   0   0   9  10   0   0   0   0   7   5   0   0   0   0   0   0   0   7   0  10   0   0   0   0   0   0   0   0  15 97 91 90 89 86 84 83 81 76 75 74 73 71 68 67 
   6   0   0   0   0   5   0   0   0   0   0   0   0   0   7   0   0   0   0   5   0   0   0   0   0   4   8   0   0   0   0   7 95 89 80 74 72 57 55 
   6   0   0   0   0   6   0   0   0   0   0   8   0   0   0   0   0   0   0   0   0   0   0   0   0   0   0   0   0   0   0   9 96 89 85 82 79 76 75 65 60 
   1   0   0   0   0   0   4   0   0   0   0   0   0   0   0   0   0   0   0   0   0   4   0   0   0   0   0   0   0   0   0   9 96 87 85 84 82 77 75 71 60 
   5   0   0   0   0   0   0   0   0   0   8   0   0   0   0   0   0   0   0   0   0   0   0   0   0   0   0   0   0   0   0  11 91 88 87 85 82 81 80 79 73 72 70 
   3   0   0   0   0   0   0   0   0   0   0   0   0   0   0   6   0   0   6   2   8   0   0   0   0   0   0   0   0   6   0  11 96 91 90 89 82 81 80 79 75 74 70 
   5   1   0   0   0   0   0   0   0   5   0   0   0   0   0   0   0   0   9   0   0   0   0   4   0   0   0   0   0   0   0  10 98 95 93 91 86 77 73 71 68 67 
   1   0   0   6   0   0   0   0   0   0   0   6   0   0   0   0   0   0   0   7   0   0   0   6   0   0   0   0   0   0   0   7 93 92 87 86 82 72 57 
   2   0   0   0   0   0   0   0   0   0   0   0   0   6   0   0   0   2   0   0   7   0   0   0   0   0   0   5   8   0   0   7 96 95 82 76 75 72 58 
   9   0   6   0   0   0   0   0   0   5   0   4   0   7   7   0   0   0   0   0   0   0   0   3   0   0   0   0   0   0   0   8 85 84 82 81 77 72 70 64 
   2   0   0   0   0   6   0   0   0   0   0   6   0   0   0   0   0   0   0   0   0   0   0   0   0   0   0   0   0   0   0   7 99 84 83 74 72 71 70 
   8   0   4   8   0   0   0   0   0   0   0   0   0   0   3   0   3   0   0   0   0   0   0   0   0   0   0   0   0  10   5   7 90 84 80 77 76 75 70 
   5   0   0   3   0   0   0   0   0   0   8   0   0   0   0   0   0   9   0   0   0   8   6   0   7   0   0   8   0   0   0   7 90 89 83 73 72 71 70 
   7   0   0   0   0   0   6   0   0   0   0   0   0   0   0   0   7   0   0   0   0   0   0   0   7   0   0   0   5   0   0   6 80 79 77 76 73 71 
   8   0   0   6   0   0   0   0   0   0   0   4   0   0   0   0   5   0   4   0   0   0   0   0   0   0   0   0   0   0   0   6 89 82 79 77 74 70 
   6   0   0   3   0   0   0   0   0   0  10   0   0   0   0   0   0   0   0   0   0   0   0   0   5   0   0   0   0   0   0   5 76 75 74 72 71 
   2   8   0   0   0   0   0   0   0   0   0   0   0   0   0   0   0   0   0   0   0   0   0   0   0   0   0   4   0   0   0   5 85 77 76 73 70 
   8   0   0   0   0   0   0   0   0   0   0   7   0   6   0   0  10   0   0   0   0   0   8   0   0   0   0   7   0   0   5   5 88 77 75 74 71 
   5  10   0   4   0   4   0   0   0   0   0   0   0   0   7   0   0  10   8   0   0   8   0   0   0   5   0   0   0   0   0   4 81 79 71 70 
   4   0   0   0   8   0   0   0   0   0   0   0   0   0   0  10   0   0   0   0   0   0   7   0   0   0   0   0   0   0   0   4 80 79 71 70 
   4   0   0   0   0   0   0  10   2   0   0   0   0   0   0   0   4   0   0   0   0   0   0   0   0   0   0   0   0   0   0   4 89 86 75 70 
   6   0   0   0   0   0   0   0   0   2   0   0   0   0   0   0   0   0   0   0   0   0   0  10   0   0   0   0   0   6   0   3 83 72 70 
   6   0   0   0   0   0   0   0   0   0   0   0   0   0   0   0   0   0   0   0   0   0   0   0   0   0   0   0   0   7   0   3 76 72 71 
   5   0   0   0   0   0   0   0   0   6   0   0   0   0   0   0   4   0   0   0   0   0   0   0   0   6   0   0   0   0   0   3 84 80 78 
   7   0   0   8   0   0   0   0   0   0   0   0   0   0   0   0   0   0   0   0   0   0   0   6   0   0   0   0   0   0   0   3 87 81 70 
   2   0   0   0   0   0   0   0   0   0   0   0   0   4   0   0   0   0   0   5   7   4   0   0   0   0   0   9   0   0   0   2 74 73 
   7   0  10   0   0   0   7   0   0   0   0   0   0   9   0   0   0   0   0   3   0   0   0   0   6   6   0   0   0   0   0   2 74 73 
   5   0   0   0   0   0   0   0   0   0   0   0   7   9   0   0   0   0   0   0   0   0   0   0   0   0   0   0   3   0   0   1 75 
   9   0   0   0   0   0   0   0   0   0   0   0   0   0   0   0   0   0   0   0   0   0   0   5   6   0   0   0   9   0   0   1 70 
   8   0   0   0   0   0   0   0   0   0   0   0   0   0   0   5   0   4   7   0   0   0   0   0   0   0   0   0   0   0   6   1 70 
   5   0   0   0   0   0   0   0   0   0   0   4   0   0   0   0   0   0   0   0   0   0   0   0   2   0   0   0   0   0   0   1 76 
   4   0   8   0   0   0   0   0   0   0   0   7   0   0   0   0   0   0   7   0   0   0   0   0   5   0   7   9   0   0   0   1 102
   8   0   0   0   0   0   0   0   6   0   9   0   4   0   0   6   0   0   7   0   7   0   0   0   0   9   0   0   0   0   8   1 102
   8   0   0   0   0   0   0   0   0   0   0   0   0   0   0   0   0   0   0   0   0   0   0   0   0   0   0   0   0   0   0   1 102
   3   0   0   5   0   0   0   0   0   0   0   0   0   0   0   0   0   0   0   0   0   0   0   0   0   0   0   0   0   0   0   1 102
   5   7   3   0   0   0   0   0   0   0   0   0  10   0   0   0   8   5   0   0   7   0   0   0   0   0   0   0   0   0   0   1 102
   6   0   0   5   0   0   0   0   0   0   0   0   0   0   0   0   0   0   0   5   0   0   0   0   7   0   0   0   0   0   0   1 102
   1   0   0   0   8   9   0   0   0   7   0   0   0   0  10   0   7   0   0   0   0   0   0   9   0   0   0   4   7   0   0   1 102
   5   0   0   0   0   0   0   0   0   0   0   0   0   0   0   0   0   0   0   0   0   0   0   6   0   0   0   0   0   0   0   1 102
   4   0   0   0   0   0   5   0  10   0   0   0   0   0   0   0   0   0   0   0   0   0   0   0  10   6   0   0   0   0   0   1 102
   4   0   0   7   0   0   0   0   0   0   0   0   0   0   9   0   0   0   0   0   0   0   0   0   0   7   0   0   0   0   0   1 102
   1   9   0   0   0   0   0   0   0   0   0   0   0   0   0   6   8   0   0   0   0   9   0   0   0   7   0   0   0   0   0   1 102
   9   0   0   0   0   0   0   0   0   0   0   0   0   0   0   0   0   0   0   0   0   0   0   0   0   0   0   0   0   0   0   1 102
   2   0   0   5   0   0   0   0   0   0   0   0   0   0   0   6   0   4   0   0   0   0   0   5   0   0   0   0   0   0   0   1 102
   8   0   9   0   0   0   0   0   0   0   0   0   0   0   7   2   0   0   0   0   7   0   0   0   0   0   0   6   0   0   0   1 102
  10   0   0   0   0   0   0   8   0   5   0   0   0   0   0   0   0   5   0   0   0   7   0   0   0   0   0   8   0   0   7   1 102
   6   7   0   0   0   0   8   0   0   0   0   0   0   0   0   0   9   0   0   0   0   0   0   0   0   0   0   0   0   0   0   1 102
   9   0   0   0   0   0   0   0   0   0   0   0   0   0   0   0   0   0   0   0   0   0   5   0   0   0   0   0   0   0   0   1 102
   5   0   0   0   0   0   0   0   0   0   0   9   0   0   0   0   0   0   0   0   0   0   0   0   0   0   0   0   0   0   0   1 102
   1   0   0   0   0   0   0   0   0   0   0   0   0   7   0   8   0   0   0   0   0   0   0   0   0   6   0   0   0   0   0   1 102
   4   0   0   0   0   0   0   0   0   9   4   0   2   0   0   0   0   0   0   0   0   6   0   0   0   0   0   0   0   0   0   1 102
   4   0   0   0   0   0   0   0   0   0   0   0   0   0   0   0   0   5   0   0   0   0   0   0   0   0   5   0   0   0   0   1 102
  10   0   0   0   6   0   7   0   0   0   0   0   0   0   0   0   0   0   0   0   0   0   0   0   0   0   0   0   0   0   0   1 102
   8   0   0   0   0   8   0   0   0   0   0   0   0   0   5   0   0   6   0   0   0   0   0   0   0   5   0   0   0   0   0   1 102
   2   0   0   0   0   0   6   0   0   0   0   0   0   0   0   0   0   0   0  10   0   0   0   0   0   0   0   0   0   7   0   1 102
   4   0   0   7   0   0   0   7   0   0   0   0   0   0   0   0   0   6   0   7   0   0   0   0   0   0   0   0   0   0   8   1 102
   4   0   0   7   0   0   0   0   0   0   0   6   0   0   0   6   0   0   0   0   0   0   0   0   0   0   0   0   0   0   6   1 102
   9   0   0   0   0   0   0   0   0   0   0   0   0   0   0   0   0   0   0   0   0   0   0   5   0   6   0   0   0   0   0   1 102
   1   0   0   0   0   0   0   0   8   0   0   0   0   0   0   0   6   0   0   7   0   0   0   0   0   0   0   0   0   0   0   1 102
   4   0   0   0   0   0   0   0   0   7   0   0   0   0   0   0   0   0   0   0   0   0   0   0   0   0   0   0   0   0   0   1 102
   7   0   0   0   0   0   0   0   0   0   3   0   0   0   7   0   0   0   0   0   0   0   4   0   0   0   0   0   0   0   0   1 102
   1   5   8   0   0   0   6   0   8   0   0   0   0   0   0   0   0   0   0   0   0   0   0  10   0   0   0   3   4   8   0   1 102
   2   0   0   0   6   0   0   0   7   9   0   0   0   0   0   7   0   9   7   0   0   0   0   0   0   0   0   0   0   0   0   1 102
   0   0   0   0   0   0   0   0   0   0   0   0   0   0   0   0   0   0   0   0   0   0   0   0   0   0   0   0   0   0   0   0 
